certificates/rado_a26_c24_N83.drat
-81 -83 0
d -81 -1 -83 0
27 29 81 0
-3 -83 0
-83 0
81 0
3 0
-1 0
-57 0
-27 0
59 0
55 0
29 0
25 0
-5 0
-79 0
7 0
77 0
-61 0
-23 0
63 0
21 0
-9 0
-75 0
11 0
73 0
-65 0
-19 0
67 0
17 0
-13 0
-71 0
15 0
69 0
0
